unsat
(:binary-propagations  15
 :conflicts            1
 :final-checks         1
 :max-generation       1
 :max-memory           25.19
 :memory               21.29
 :mk-bool-var          1203
 :mk-clause            435
 :mk-clause-binary     2434
 :num-allocs           31409250
 :num-checks           1
 :propagations         15
 :quant-instantiations 427
 :restarts             1
 :rlimit-count         306254
 :time                 0.07)
